150 9043220
4 24 144 142 52 131 80 100 15 16 47 83 94 7 67 77 11 35 122 130 99 51 105 14 149 70 79 124 63 49 9 129 55 116 128 34 10 29 76 21 104 115 75 91 37 98 60 38 134 141 147 88 140 145 111 32 36 42 13 102 43 68 139 132 25 18 62 45 61 6 121 26 90 3 92 84 133 127 59 114 150 126 33 19 30 12 113 71 110 2 5 8 39 107 95 123 93 28 48 66 89 146 108 50 78 17 101 85 69 40 65 119 27 58 41 44 97 138 103 86 57 64 22 120 117 23 82 74 46 31 125 148 112 54 56 73 109 87 81 96 20 106 53 136 135 1 118 143 72 137 
